c FILE /home/rafael/Documents/HappySet/MIHS/inputs/happygen/output/graph_scale_free_k10_p0.5_v100_20241127_083918.txt
c SOURCE This is a scale-free graph formed for the happy graph colouring problem.
c DESCRIPTION It was generated using the problem generator of Rhyd Lewis
c
c GRAPH STATS
c Seed                             = 494284825
c Number of Nodes                  = 100
c Number of colours k              = 10
c Number of pre-assignments        = 50
c Number of links per new node     = 5
c Density                          = 0.0979798
c 
c The degrees of nodes 1 to 100, respectively, are as follows 
c [30, 30, 30, 27, 25, 24, 24, 21, 20, 20, 20, 20, 19, 18, 18, 17, 16, 15, 15, 15, 15, 14, 13, 12, 11, 11, 
c  10, 10, 10, 9, 9, 9, 9, 8, 8, 8, 8, 8, 8, 8, 8, 8, 8, 8, 8, 8, 7, 7, 7, 7, 7, 
c  7, 6, 6, 6, 6, 6, 6, 6, 6, 6, 6, 6, 6, 6, 6, 6, 6, 6, 6, 5, 5, 5, 5, 5, 5, 
c  5, 5, 5, 5, 5, 5, 5, 5, 5, 5, 5, 5, 5, 5, 5, 5, 5, 5, 5, 5, 5, 5, 5, 5] 
c  
p edge 100 485 10
e 1 2
e 1 4
e 1 5
e 1 6
e 1 7
e 1 9
e 1 10
e 1 12
e 1 14
e 1 15
e 1 16
e 1 18
e 1 19
e 1 20
e 1 22
e 1 25
e 1 30
e 1 35
e 1 39
e 1 48
e 1 55
e 1 60
e 1 72
e 1 78
e 1 84
e 1 87
e 1 91
e 1 93
e 1 94
e 1 100
e 2 3
e 2 4
e 2 5
e 2 6
e 2 9
e 2 10
e 2 11
e 2 12
e 2 13
e 2 16
e 2 18
e 2 20
e 2 21
e 2 22
e 2 30
e 2 33
e 2 36
e 2 38
e 2 40
e 2 44
e 2 45
e 2 46
e 2 47
e 2 54
e 2 55
e 2 57
e 2 68
e 2 70
e 2 88
e 3 4
e 3 5
e 3 6
e 3 8
e 3 9
e 3 10
e 3 11
e 3 14
e 3 16
e 3 19
e 3 22
e 3 23
e 3 25
e 3 26
e 3 28
e 3 30
e 3 31
e 3 33
e 3 35
e 3 42
e 3 49
e 3 51
e 3 54
e 3 66
e 3 67
e 3 81
e 3 88
e 3 89
e 3 99
e 4 5
e 4 6
e 4 9
e 4 11
e 4 13
e 4 22
e 4 27
e 4 30
e 4 32
e 4 39
e 4 44
e 4 53
e 4 54
e 4 56
e 4 60
e 4 65
e 4 83
e 4 88
e 4 90
e 4 94
e 4 95
e 4 96
e 4 97
e 4 100
e 5 6
e 5 9
e 5 10
e 5 14
e 5 15
e 5 16
e 5 18
e 5 19
e 5 21
e 5 26
e 5 30
e 5 35
e 5 37
e 5 45
e 5 51
e 5 53
e 5 56
e 5 57
e 5 80
e 5 90
e 5 96
e 6 7
e 6 8
e 6 9
e 6 10
e 6 11
e 6 13
e 6 18
e 6 28
e 6 34
e 6 43
e 6 47
e 6 55
e 6 56
e 6 60
e 6 65
e 6 66
e 6 73
e 6 80
e 6 81
e 7 8
e 7 15
e 7 16
e 7 21
e 7 22
e 7 24
e 7 26
e 7 37
e 7 39
e 7 45
e 7 48
e 7 50
e 7 51
e 7 56
e 7 61
e 7 68
e 7 69
e 7 72
e 7 74
e 7 81
e 7 85
e 7 93
e 8 10
e 8 14
e 8 22
e 8 23
e 8 27
e 8 30
e 8 33
e 8 38
e 8 48
e 8 65
e 8 67
e 8 70
e 8 72
e 8 75
e 8 82
e 8 95
e 8 97
e 8 99
e 9 14
e 9 15
e 9 18
e 9 20
e 9 23
e 9 25
e 9 29
e 9 36
e 9 48
e 9 54
e 9 73
e 9 78
e 9 83
e 9 93
e 10 15
e 10 16
e 10 22
e 10 24
e 10 35
e 10 37
e 10 39
e 10 44
e 10 45
e 10 46
e 10 62
e 10 69
e 10 71
e 10 92
e 11 18
e 11 20
e 11 21
e 11 23
e 11 24
e 11 25
e 11 27
e 11 29
e 11 34
e 11 46
e 11 61
e 11 64
e 11 76
e 11 77
e 11 79
e 11 82
e 12 15
e 12 21
e 12 23
e 12 35
e 12 38
e 12 40
e 12 43
e 12 50
e 12 53
e 12 58
e 12 64
e 12 74
e 12 75
e 12 82
e 12 83
e 12 86
e 12 87
e 12 99
e 13 14
e 13 21
e 13 22
e 13 32
e 13 40
e 13 41
e 13 49
e 13 51
e 13 52
e 13 61
e 13 70
e 13 72
e 13 77
e 13 83
e 13 85
e 13 87
e 14 23
e 14 33
e 14 42
e 14 43
e 14 53
e 14 59
e 14 69
e 14 76
e 14 77
e 14 84
e 14 86
e 14 100
e 15 29
e 15 37
e 15 38
e 15 42
e 15 43
e 15 58
e 15 60
e 15 62
e 15 71
e 15 72
e 15 77
e 15 97
e 16 26
e 16 28
e 16 31
e 16 32
e 16 34
e 16 47
e 16 48
e 16 59
e 16 71
e 16 92
e 16 94
e 17 18
e 17 21
e 17 23
e 17 24
e 17 25
e 17 28
e 17 29
e 17 30
e 17 31
e 17 32
e 17 40
e 17 55
e 17 57
e 17 62
e 17 84
e 17 89
e 18 19
e 18 26
e 18 27
e 18 57
e 18 63
e 18 64
e 18 68
e 18 91
e 19 30
e 19 36
e 19 37
e 19 38
e 19 40
e 19 42
e 19 66
e 19 67
e 19 71
e 19 90
e 19 96
e 20 22
e 20 34
e 20 36
e 20 41
e 20 47
e 20 51
e 20 57
e 20 58
e 20 79
e 20 80
e 20 86
e 21 27
e 21 39
e 21 42
e 21 53
e 21 59
e 21 61
e 21 98
e 21 100
e 22 24
e 22 25
e 22 36
e 22 78
e 22 95
e 23 31
e 23 63
e 23 73
e 23 81
e 23 90
e 23 98
e 24 29
e 24 54
e 24 59
e 24 64
e 24 69
e 24 82
e 24 99
e 25 28
e 25 34
e 25 47
e 25 52
e 25 67
e 26 50
e 26 66
e 26 68
e 26 70
e 26 76
e 26 92
e 27 44
e 27 62
e 27 70
e 27 79
e 27 99
e 28 49
e 28 52
e 28 62
e 28 94
e 28 98
e 29 46
e 29 64
e 29 78
e 29 87
e 29 96
e 30 75
e 31 36
e 31 59
e 31 73
e 31 83
e 31 85
e 32 36
e 32 44
e 32 74
e 32 91
e 32 96
e 33 46
e 33 47
e 33 58
e 33 88
e 33 95
e 34 49
e 34 52
e 34 82
e 35 55
e 35 58
e 35 74
e 36 80
e 37 60
e 37 63
e 37 67
e 38 41
e 38 43
e 38 85
e 39 75
e 39 78
e 39 89
e 40 41
e 40 45
e 40 94
e 41 59
e 41 66
e 41 92
e 41 93
e 42 49
e 42 79
e 42 98
e 43 63
e 43 88
e 43 95
e 44 50
e 44 76
e 44 92
e 45 63
e 45 93
e 45 100
e 46 84
e 46 85
e 46 86
e 47 71
e 48 65
e 48 75
e 49 52
e 49 79
e 50 56
e 50 69
e 50 87
e 51 65
e 51 89
e 52 89
e 52 97
e 53 84
e 54 61
e 55 56
e 57 74
e 58 68
e 60 86
e 61 81
e 62 73
e 63 76
e 64 90
e 65 77
e 66 98
e 67 91
e 68 80
e 69 97
e 70 91
n 18 3
n 30 6
n 35 2
n 36 3
n 38 10
n 40 1
n 44 3
n 46 8
n 47 4
n 52 5
n 53 8
n 54 4
n 56 9
n 57 3
n 59 6
n 60 8
n 62 1
n 63 3
n 65 7
n 66 7
n 67 2
n 68 3
n 69 7
n 70 1
n 71 4
n 72 9
n 73 1
n 75 6
n 76 3
n 77 7
n 78 4
n 79 1
n 80 3
n 81 3
n 82 2
n 83 2
n 84 8
n 86 8
n 87 3
n 88 8
n 89 5
n 90 10
n 92 3
n 93 1
n 94 1
n 95 10
n 96 4
n 98 7
n 99 1
n 100 5
